StudentsNr = 10;
InstructorsNr = 68;
DaysNr = 1;
SlotsPerDay = 15;
AvailabilitySlotsLenght = 15;
RoomNr = 2;
ProgrammNr = 2;
DegreeNr = 2;
RolesNr = 1;
CoursesNr = 8;
InstructorsProgramm = [{1}, {2}, {1, 2}, {1, 2}, {1, 2}, {1}, {1}, {2}, {1}, {1}, {1}, {2}, {2}, {2}, {1}, {1, 2}, {1}, {2}, {1}, {1}, {1}, {2}, {1, 2}, {1, 2}, {2}, {1}, {2}, {2}, {1}, {1, 2}, {1}, {2}, {1}, {2}, {1}, {2}, {2}, {2}, {2}, {1}, {1, 2}, {1}, {1, 2}, {2}, {1}, {1, 2}, {1}, {1, 2}, {2}, {2}, {1, 2}, {1}, {2}, {1, 2}, {2}, {1}, {1}, {1}, {1, 2}, {1, 2}, {2}, {2}, {1, 2}, {1}, {1}, {1, 2}, {1, 2}, {2}];
InstructorRolesPerProgramm = [|{1, 4, 7, 9, 10, 15, 16, 17, 20, 23, 24, 30, 35, 40, 41, 43, 45, 46, 48, 51, 52, 54, 56, 57, 59, 60, 65, 66}|{2, 4, 8, 12, 14, 16, 18, 23, 24, 25, 27, 30, 34, 37, 38, 39, 41, 43, 44, 46, 48, 49, 51, 53, 54, 59, 60, 61, 66}|];
InstructorsAvailability = [|0, |1, |0, |1, |1, |0, |0, |0, |1, |1, |1, |1, |0, |0, |0, |0, |0, |1, |1, |0, |1, |1, |1, |1, |1, |1, |0, |0, |1, |0, |0, |1, |1, |1, |0, |1, |1, |1, |1, |0, |1, |0, |1, |0, |0, |1, |0, |0, |0, |0, |0, |1, |1, |1, |1, |0, |0, |0, |1, |0, |1, |0, |1, |1, |1, |0, |1, |0|];
StudentsProgramm = [2, 1, 1, 1, 1, 2, 1, 1, 1, 2];
StudentsDegree = [1, 1, 2, 2, 1, 2, 2, 1, 2, 1];
StudentsSupervisorId = [32, 11, 52, 41, 24, 68, 65, 64, 57, 38];
StudentsCourseIds = [{1, 3, 4, 5, 6, 7}, {1, 2, 3, 4, 5, 7}, {1, 2, 3, 4, 5, 6, 7}, {2, 3, 4, 5, 6, 7, 8}, {1, 2, 3, 4, 6, 7}, {1, 2, 3, 5, 6, 7, 8}, {1, 2, 3, 4, 5, 6, 7}, {1, 2, 4, 6, 7, 8}, {1, 2, 3, 4, 5, 6, 8}, {1, 3, 4, 5, 7, 8}];
StudentsAvailability = [|1, |1, |1, |1, |0, |0, |1, |0, |0, |0|];
TheoryticalMinCard = [0, 0, 0, 0, 0, 0, 0, 0, 0, 0];
CoursesInstructorIds = [{4, 8, 11, 14, 16, 18, 20, 22, 23, 27, 32, 34, 35, 36, 40, 43, 47, 51, 53, 56, 60, 66, 67}, {3, 6, 8, 9, 10, 11, 12, 14, 15, 16, 18, 20, 21, 22, 25, 27, 28, 30, 31, 32, 33, 34, 35, 37, 38, 40, 42, 43, 45, 46, 47, 49, 52, 53, 56, 58, 59, 60, 62, 63, 64, 65, 67}, {3, 5, 7, 9, 12, 13, 14, 17, 19, 21, 22, 24, 25, 26, 27, 28, 29, 30, 33, 34, 35, 39, 40, 42, 43, 45, 48, 50, 51, 53, 54, 55, 56, 57, 59, 61, 62, 66, 68}, {8, 45, 68}, {2, 5, 6, 8, 9, 10, 13, 14, 15, 18, 19, 20, 22, 23, 24, 25, 28, 32, 33, 37, 45, 46, 47, 48, 50, 54, 56, 57, 59, 60, 63, 64, 66, 67}, {3, 7, 11, 19, 20, 22, 24, 25, 26, 27, 28, 35, 37, 43, 49, 52, 54, 57, 58, 65}, {5, 6, 12, 16, 17, 18, 19, 20, 21, 22, 23, 24, 25, 28, 29, 31, 39, 41, 42, 49, 52, 54, 55, 57, 58, 59, 60, 61, 62, 63, 64, 66, 67, 68}, {2, 3, 6, 7, 9, 12, 15, 16, 18, 19, 21, 22, 24, 26, 27, 29, 30, 31, 32, 33, 35, 38, 39, 41, 42, 46, 50, 51, 53, 56, 57, 58, 59, 60, 61, 62, 64, 66, 68}];
RolesDemands = [2];
RolesContinuity = [];
ExamLen = [1, 1, 2, 2, 1, 2, 2, 1, 2, 1];
LunchTsMinLen = 1;
LunchStarts = [5..11];
SupervisorAvailable = 5;
OptimalLunchLenght = [2, 1];
OptimalStartTs = [2, 0];
OptimalFinishTs = [0, 15];
MinimizeRooms = 200;
RolesSoftContinuity = [|1|2|];
SameDegreeInRoom = 10;
Mergeability = 2;
